\ This file has been generated by DOcplex
\ ENCODING=ISO-8859-1
\Problem name: random_problem.lp

Minimize
 obj: - 228 x0 - 114 x1 - 57 x2 + 104 x3 + 52 x4 + 26 x5 - 176 x6 - 88 x7
      - 44 x8 + 344 x9 + 172 x10 + 86 x11 + [ 1312 x0^2 + 1312 x0*x1 + 656 x0*x2
      + 3008 x0*x3 + 1504 x0*x4 + 752 x0*x5 + 1280 x0*x6 + 640 x0*x7 + 320 x0*x8
      + 1664 x0*x9 + 832 x0*x10 + 416 x0*x11 + 328 x1^2 + 328 x1*x2 + 1504 x1*x3
      + 752 x1*x4 + 376 x1*x5 + 640 x1*x6 + 320 x1*x7 + 160 x1*x8 + 832 x1*x9
      + 416 x1*x10 + 208 x1*x11 + 82 x2^2 + 752 x2*x3 + 376 x2*x4 + 188 x2*x5
      + 320 x2*x6 + 160 x2*x7 + 80 x2*x8 + 416 x2*x9 + 208 x2*x10 + 104 x2*x11
      + 9792 x3^2 + 9792 x3*x4 + 4896 x3*x5 + 6848 x3*x6 + 3424 x3*x7
      + 1712 x3*x8 + 1664 x3*x9 + 832 x3*x10 + 416 x3*x11 + 2448 x4^2
      + 2448 x4*x5 + 3424 x4*x6 + 1712 x4*x7 + 856 x4*x8 + 832 x4*x9
      + 416 x4*x10 + 208 x4*x11 + 612 x5^2 + 1712 x5*x6 + 856 x5*x7 + 428 x5*x8
      + 416 x5*x9 + 208 x5*x10 + 104 x5*x11 + 3776 x6^2 + 3776 x6*x7
      + 1888 x6*x8 + 3264 x6*x9 + 1632 x6*x10 + 816 x6*x11 + 944 x7^2
      + 944 x7*x8 + 1632 x7*x9 + 816 x7*x10 + 408 x7*x11 + 236 x8^2 + 816 x8*x9
      + 408 x8*x10 + 204 x8*x11 + 4288 x9^2 + 4288 x9*x10 + 2144 x9*x11
      + 1072 x10^2 + 1072 x10*x11 + 268 x11^2 ]/2
Subject To
 c0: 4 x0 + 2 x1 + x2 + 4 x3 + 2 x4 + x5 + 4 x6 + 2 x7 + x8 + 4 x9 + 2 x10 + x11
      = 7

Bounds
 0 <= x0 <= 1
 0 <= x1 <= 1
 0 <= x2 <= 1
 0 <= x3 <= 1
 0 <= x4 <= 1
 0 <= x5 <= 1
 0 <= x6 <= 1
 0 <= x7 <= 1
 0 <= x8 <= 1
 0 <= x9 <= 1
 0 <= x10 <= 1
 0 <= x11 <= 1

Binaries
 x0 x1 x2 x3 x4 x5 x6 x7 x8 x9 x10 x11
End
